letting x_max be 5
letting y_max be 5

letting blanks be 
[
    [0,0,0,0,0],
    [0,0,1,1,0],
    [0,1,1,1,1],
    [0,1,1,1,1],
    [0,0,1,1,0]

]

letting vertsums be 
[
    [ 0, 0,17,29, 0],
    [ 0,12, 0, 0, 8],
    [ 0, 0, 0, 0, 0],
    [ 0, 0, 0, 0, 0],
    [ 0, 0, 0, 0, 0]

]

letting horzsums be 
[
    [ 0, 0, 0, 0, 0],
    [ 0,17, 0, 0, 0],
    [14, 0, 0, 0, 0],
    [29, 0, 0, 0, 0],
    [ 0, 6, 0, 0, 0]

]